0 24 27 28 21 25 22 26 23 88 35 34 33 32 31 30 36 98 69 73 66 70 72 68 71 67 29 1 87 9 12 8 15 13 11 14 10 95 74 60 61 93 62 56 57 58 59 37 3 52 51 50 53 86 64 65 63 85 84 99 2 96 16 92 91 90 89 18 19 20 17 97 94 47 48 49 46 55 83 41 42 43 44 45 40 54 6 5 4 7 77 80 76 79 81 78 82 75 39 38 0 